p cnf 210 2480
1 2 3 4 5 6 7 0
8 9 10 11 12 13 14 0
15 16 17 18 19 20 21 0
22 23 24 25 26 27 28 0
29 30 31 32 33 34 35 0
36 37 38 39 40 41 42 0
43 44 45 46 47 48 49 0
50 51 52 53 54 55 56 0
57 58 59 60 61 62 63 0
64 65 66 67 68 69 70 0
71 72 73 74 75 76 77 0
78 79 80 81 82 83 84 0
85 86 87 88 89 90 91 0
92 93 94 95 96 97 98 0
99 100 101 102 103 104 105 0
106 107 108 109 110 111 112 0
113 114 115 116 117 118 119 0
120 121 122 123 124 125 126 0
127 128 129 130 131 132 133 0
134 135 136 137 138 139 140 0
141 142 143 144 145 146 147 0
148 149 150 151 152 153 154 0
155 156 157 158 159 160 161 0
162 163 164 165 166 167 168 0
169 170 171 172 173 174 175 0
176 177 178 179 180 181 182 0
183 184 185 186 187 188 189 0
190 191 192 193 194 195 196 0
197 198 199 200 201 202 203 0
204 205 206 207 208 209 210 0
-1 -2 0
-1 -3 0
-1 -4 0
-1 -5 0
-1 -6 0
-1 -7 0
-2 -3 0
-2 -4 0
-2 -5 0
-2 -6 0
-2 -7 0
-3 -4 0
-3 -5 0
-3 -6 0
-3 -7 0
-4 -5 0
-4 -6 0
-4 -7 0
-5 -6 0
-5 -7 0
-6 -7 0
-8 -9 0
-8 -10 0
-8 -11 0
-8 -12 0
-8 -13 0
-8 -14 0
-9 -10 0
-9 -11 0
-9 -12 0
-9 -13 0
-9 -14 0
-10 -11 0
-10 -12 0
-10 -13 0
-10 -14 0
-11 -12 0
-11 -13 0
-11 -14 0
-12 -13 0
-12 -14 0
-13 -14 0
-15 -16 0
-15 -17 0
-15 -18 0
-15 -19 0
-15 -20 0
-15 -21 0
-16 -17 0
-16 -18 0
-16 -19 0
-16 -20 0
-16 -21 0
-17 -18 0
-17 -19 0
-17 -20 0
-17 -21 0
-18 -19 0
-18 -20 0
-18 -21 0
-19 -20 0
-19 -21 0
-20 -21 0
-22 -23 0
-22 -24 0
-22 -25 0
-22 -26 0
-22 -27 0
-22 -28 0
-23 -24 0
-23 -25 0
-23 -26 0
-23 -27 0
-23 -28 0
-24 -25 0
-24 -26 0
-24 -27 0
-24 -28 0
-25 -26 0
-25 -27 0
-25 -28 0
-26 -27 0
-26 -28 0
-27 -28 0
-29 -30 0
-29 -31 0
-29 -32 0
-29 -33 0
-29 -34 0
-29 -35 0
-30 -31 0
-30 -32 0
-30 -33 0
-30 -34 0
-30 -35 0
-31 -32 0
-31 -33 0
-31 -34 0
-31 -35 0
-32 -33 0
-32 -34 0
-32 -35 0
-33 -34 0
-33 -35 0
-34 -35 0
-36 -37 0
-36 -38 0
-36 -39 0
-36 -40 0
-36 -41 0
-36 -42 0
-37 -38 0
-37 -39 0
-37 -40 0
-37 -41 0
-37 -42 0
-38 -39 0
-38 -40 0
-38 -41 0
-38 -42 0
-39 -40 0
-39 -41 0
-39 -42 0
-40 -41 0
-40 -42 0
-41 -42 0
-43 -44 0
-43 -45 0
-43 -46 0
-43 -47 0
-43 -48 0
-43 -49 0
-44 -45 0
-44 -46 0
-44 -47 0
-44 -48 0
-44 -49 0
-45 -46 0
-45 -47 0
-45 -48 0
-45 -49 0
-46 -47 0
-46 -48 0
-46 -49 0
-47 -48 0
-47 -49 0
-48 -49 0
-50 -51 0
-50 -52 0
-50 -53 0
-50 -54 0
-50 -55 0
-50 -56 0
-51 -52 0
-51 -53 0
-51 -54 0
-51 -55 0
-51 -56 0
-52 -53 0
-52 -54 0
-52 -55 0
-52 -56 0
-53 -54 0
-53 -55 0
-53 -56 0
-54 -55 0
-54 -56 0
-55 -56 0
-57 -58 0
-57 -59 0
-57 -60 0
-57 -61 0
-57 -62 0
-57 -63 0
-58 -59 0
-58 -60 0
-58 -61 0
-58 -62 0
-58 -63 0
-59 -60 0
-59 -61 0
-59 -62 0
-59 -63 0
-60 -61 0
-60 -62 0
-60 -63 0
-61 -62 0
-61 -63 0
-62 -63 0
-64 -65 0
-64 -66 0
-64 -67 0
-64 -68 0
-64 -69 0
-64 -70 0
-65 -66 0
-65 -67 0
-65 -68 0
-65 -69 0
-65 -70 0
-66 -67 0
-66 -68 0
-66 -69 0
-66 -70 0
-67 -68 0
-67 -69 0
-67 -70 0
-68 -69 0
-68 -70 0
-69 -70 0
-71 -72 0
-71 -73 0
-71 -74 0
-71 -75 0
-71 -76 0
-71 -77 0
-72 -73 0
-72 -74 0
-72 -75 0
-72 -76 0
-72 -77 0
-73 -74 0
-73 -75 0
-73 -76 0
-73 -77 0
-74 -75 0
-74 -76 0
-74 -77 0
-75 -76 0
-75 -77 0
-76 -77 0
-78 -79 0
-78 -80 0
-78 -81 0
-78 -82 0
-78 -83 0
-78 -84 0
-79 -80 0
-79 -81 0
-79 -82 0
-79 -83 0
-79 -84 0
-80 -81 0
-80 -82 0
-80 -83 0
-80 -84 0
-81 -82 0
-81 -83 0
-81 -84 0
-82 -83 0
-82 -84 0
-83 -84 0
-85 -86 0
-85 -87 0
-85 -88 0
-85 -89 0
-85 -90 0
-85 -91 0
-86 -87 0
-86 -88 0
-86 -89 0
-86 -90 0
-86 -91 0
-87 -88 0
-87 -89 0
-87 -90 0
-87 -91 0
-88 -89 0
-88 -90 0
-88 -91 0
-89 -90 0
-89 -91 0
-90 -91 0
-92 -93 0
-92 -94 0
-92 -95 0
-92 -96 0
-92 -97 0
-92 -98 0
-93 -94 0
-93 -95 0
-93 -96 0
-93 -97 0
-93 -98 0
-94 -95 0
-94 -96 0
-94 -97 0
-94 -98 0
-95 -96 0
-95 -97 0
-95 -98 0
-96 -97 0
-96 -98 0
-97 -98 0
-99 -100 0
-99 -101 0
-99 -102 0
-99 -103 0
-99 -104 0
-99 -105 0
-100 -101 0
-100 -102 0
-100 -103 0
-100 -104 0
-100 -105 0
-101 -102 0
-101 -103 0
-101 -104 0
-101 -105 0
-102 -103 0
-102 -104 0
-102 -105 0
-103 -104 0
-103 -105 0
-104 -105 0
-106 -107 0
-106 -108 0
-106 -109 0
-106 -110 0
-106 -111 0
-106 -112 0
-107 -108 0
-107 -109 0
-107 -110 0
-107 -111 0
-107 -112 0
-108 -109 0
-108 -110 0
-108 -111 0
-108 -112 0
-109 -110 0
-109 -111 0
-109 -112 0
-110 -111 0
-110 -112 0
-111 -112 0
-113 -114 0
-113 -115 0
-113 -116 0
-113 -117 0
-113 -118 0
-113 -119 0
-114 -115 0
-114 -116 0
-114 -117 0
-114 -118 0
-114 -119 0
-115 -116 0
-115 -117 0
-115 -118 0
-115 -119 0
-116 -117 0
-116 -118 0
-116 -119 0
-117 -118 0
-117 -119 0
-118 -119 0
-120 -121 0
-120 -122 0
-120 -123 0
-120 -124 0
-120 -125 0
-120 -126 0
-121 -122 0
-121 -123 0
-121 -124 0
-121 -125 0
-121 -126 0
-122 -123 0
-122 -124 0
-122 -125 0
-122 -126 0
-123 -124 0
-123 -125 0
-123 -126 0
-124 -125 0
-124 -126 0
-125 -126 0
-127 -128 0
-127 -129 0
-127 -130 0
-127 -131 0
-127 -132 0
-127 -133 0
-128 -129 0
-128 -130 0
-128 -131 0
-128 -132 0
-128 -133 0
-129 -130 0
-129 -131 0
-129 -132 0
-129 -133 0
-130 -131 0
-130 -132 0
-130 -133 0
-131 -132 0
-131 -133 0
-132 -133 0
-134 -135 0
-134 -136 0
-134 -137 0
-134 -138 0
-134 -139 0
-134 -140 0
-135 -136 0
-135 -137 0
-135 -138 0
-135 -139 0
-135 -140 0
-136 -137 0
-136 -138 0
-136 -139 0
-136 -140 0
-137 -138 0
-137 -139 0
-137 -140 0
-138 -139 0
-138 -140 0
-139 -140 0
-141 -142 0
-141 -143 0
-141 -144 0
-141 -145 0
-141 -146 0
-141 -147 0
-142 -143 0
-142 -144 0
-142 -145 0
-142 -146 0
-142 -147 0
-143 -144 0
-143 -145 0
-143 -146 0
-143 -147 0
-144 -145 0
-144 -146 0
-144 -147 0
-145 -146 0
-145 -147 0
-146 -147 0
-148 -149 0
-148 -150 0
-148 -151 0
-148 -152 0
-148 -153 0
-148 -154 0
-149 -150 0
-149 -151 0
-149 -152 0
-149 -153 0
-149 -154 0
-150 -151 0
-150 -152 0
-150 -153 0
-150 -154 0
-151 -152 0
-151 -153 0
-151 -154 0
-152 -153 0
-152 -154 0
-153 -154 0
-155 -156 0
-155 -157 0
-155 -158 0
-155 -159 0
-155 -160 0
-155 -161 0
-156 -157 0
-156 -158 0
-156 -159 0
-156 -160 0
-156 -161 0
-157 -158 0
-157 -159 0
-157 -160 0
-157 -161 0
-158 -159 0
-158 -160 0
-158 -161 0
-159 -160 0
-159 -161 0
-160 -161 0
-162 -163 0
-162 -164 0
-162 -165 0
-162 -166 0
-162 -167 0
-162 -168 0
-163 -164 0
-163 -165 0
-163 -166 0
-163 -167 0
-163 -168 0
-164 -165 0
-164 -166 0
-164 -167 0
-164 -168 0
-165 -166 0
-165 -167 0
-165 -168 0
-166 -167 0
-166 -168 0
-167 -168 0
-169 -170 0
-169 -171 0
-169 -172 0
-169 -173 0
-169 -174 0
-169 -175 0
-170 -171 0
-170 -172 0
-170 -173 0
-170 -174 0
-170 -175 0
-171 -172 0
-171 -173 0
-171 -174 0
-171 -175 0
-172 -173 0
-172 -174 0
-172 -175 0
-173 -174 0
-173 -175 0
-174 -175 0
-176 -177 0
-176 -178 0
-176 -179 0
-176 -180 0
-176 -181 0
-176 -182 0
-177 -178 0
-177 -179 0
-177 -180 0
-177 -181 0
-177 -182 0
-178 -179 0
-178 -180 0
-178 -181 0
-178 -182 0
-179 -180 0
-179 -181 0
-179 -182 0
-180 -181 0
-180 -182 0
-181 -182 0
-183 -184 0
-183 -185 0
-183 -186 0
-183 -187 0
-183 -188 0
-183 -189 0
-184 -185 0
-184 -186 0
-184 -187 0
-184 -188 0
-184 -189 0
-185 -186 0
-185 -187 0
-185 -188 0
-185 -189 0
-186 -187 0
-186 -188 0
-186 -189 0
-187 -188 0
-187 -189 0
-188 -189 0
-190 -191 0
-190 -192 0
-190 -193 0
-190 -194 0
-190 -195 0
-190 -196 0
-191 -192 0
-191 -193 0
-191 -194 0
-191 -195 0
-191 -196 0
-192 -193 0
-192 -194 0
-192 -195 0
-192 -196 0
-193 -194 0
-193 -195 0
-193 -196 0
-194 -195 0
-194 -196 0
-195 -196 0
-197 -198 0
-197 -199 0
-197 -200 0
-197 -201 0
-197 -202 0
-197 -203 0
-198 -199 0
-198 -200 0
-198 -201 0
-198 -202 0
-198 -203 0
-199 -200 0
-199 -201 0
-199 -202 0
-199 -203 0
-200 -201 0
-200 -202 0
-200 -203 0
-201 -202 0
-201 -203 0
-202 -203 0
-204 -205 0
-204 -206 0
-204 -207 0
-204 -208 0
-204 -209 0
-204 -210 0
-205 -206 0
-205 -207 0
-205 -208 0
-205 -209 0
-205 -210 0
-206 -207 0
-206 -208 0
-206 -209 0
-206 -210 0
-207 -208 0
-207 -209 0
-207 -210 0
-208 -209 0
-208 -210 0
-209 -210 0
-7 -16 0
-1 -21 0
-4 -18 0
-1 -17 0
-5 -19 0
-5 -16 0
-6 -17 0
-2 -18 0
-3 -21 0
-3 -18 0
-2 -21 0
-4 -16 0
-3 -20 0
-7 -19 0
-1 -39 0
-7 -42 0
-1 -41 0
-3 -40 0
-6 -42 0
-6 -39 0
-5 -39 0
-2 -39 0
-6 -40 0
-3 -41 0
-5 -37 0
-5 -42 0
-2 -36 0
-4 -38 0
-1 -55 0
-2 -53 0
-4 -50 0
-4 -53 0
-6 -53 0
-4 -55 0
-6 -52 0
-3 -56 0
-3 -50 0
-1 -51 0
-5 -53 0
-6 -50 0
-5 -52 0
-2 -51 0
-4 -63 0
-7 -62 0
-4 -57 0
-7 -61 0
-4 -60 0
-2 -57 0
-1 -57 0
-7 -63 0
-2 -62 0
-7 -59 0
-1 -60 0
-1 -62 0
-2 -63 0
-5 -59 0
-4 -87 0
-7 -90 0
-6 -90 0
-4 -86 0
-3 -86 0
-6 -87 0
-7 -88 0
-3 -91 0
-4 -85 0
-7 -89 0
-2 -88 0
-7 -87 0
-2 -87 0
-5 -86 0
-7 -95 0
-1 -95 0
-2 -97 0
-2 -95 0
-3 -94 0
-2 -94 0
-1 -96 0
-3 -93 0
-5 -94 0
-6 -98 0
-5 -93 0
-5 -92 0
-4 -98 0
-3 -92 0
-4 -146 0
-2 -147 0
-6 -147 0
-2 -143 0
-2 -141 0
-1 -144 0
-1 -146 0
-1 -142 0
-4 -141 0
-3 -141 0
-3 -145 0
-1 -141 0
-6 -143 0
-5 -145 0
-4 -155 0
-1 -159 0
-5 -158 0
-5 -160 0
-4 -161 0
-6 -160 0
-5 -155 0
-3 -156 0
-4 -157 0
-3 -157 0
-1 -157 0
-2 -161 0
-2 -160 0
-2 -158 0
-4 -167 0
-1 -164 0
-5 -165 0
-1 -162 0
-1 -167 0
-4 -166 0
-5 -167 0
-3 -162 0
-4 -164 0
-6 -163 0
-7 -167 0
-5 -168 0
-7 -168 0
-5 -163 0
-3 -184 0
-3 -183 0
-7 -186 0
-7 -184 0
-7 -188 0
-5 -188 0
-7 -183 0
-3 -189 0
-3 -188 0
-5 -183 0
-1 -185 0
-6 -184 0
-6 -187 0
-4 -189 0
-4 -195 0
-7 -190 0
-1 -191 0
-4 -196 0
-1 -195 0
-1 -196 0
-2 -193 0
-7 -195 0
-5 -196 0
-6 -190 0
-1 -193 0
-4 -191 0
-5 -191 0
-3 -194 0
-11 -89 0
-13 -86 0
-13 -88 0
-10 -90 0
-13 -87 0
-9 -91 0
-10 -89 0
-10 -88 0
-12 -89 0
-11 -85 0
-8 -88 0
-11 -88 0
-12 -90 0
-12 -87 0
-13 -139 0
-9 -134 0
-14 -136 0
-11 -137 0
-10 -139 0
-13 -136 0
-12 -134 0
-14 -138 0
-14 -134 0
-8 -137 0
-10 -140 0
-12 -137 0
-13 -138 0
-9 -138 0
-12 -146 0
-9 -142 0
-9 -141 0
-11 -141 0
-9 -144 0
-11 -145 0
-12 -142 0
-11 -147 0
-10 -147 0
-12 -144 0
-8 -143 0
-14 -142 0
-10 -143 0
-12 -143 0
-13 -154 0
-12 -150 0
-8 -149 0
-9 -152 0
-12 -152 0
-14 -150 0
-10 -154 0
-9 -150 0
-13 -150 0
-8 -152 0
-14 -153 0
-11 -152 0
-14 -154 0
-14 -152 0
-12 -164 0
-13 -167 0
-12 -165 0
-9 -166 0
-11 -167 0
-12 -167 0
-13 -164 0
-8 -165 0
-11 -166 0
-11 -165 0
-12 -168 0
-8 -167 0
-10 -168 0
-9 -163 0
-14 -201 0
-13 -200 0
-13 -201 0
-10 -202 0
-11 -200 0
-9 -200 0
-8 -199 0
-13 -198 0
-14 -197 0
-10 -203 0
-8 -198 0
-11 -197 0
-13 -197 0
-11 -201 0
-20 -44 0
-21 -46 0
-21 -48 0
-17 -49 0
-16 -45 0
-16 -49 0
-21 -43 0
-15 -43 0
-19 -46 0
-21 -45 0
-17 -43 0
-15 -45 0
-15 -49 0
-19 -45 0
-18 -113 0
-16 -114 0
-17 -115 0
-19 -115 0
-18 -115 0
-17 -118 0
-18 -116 0
-18 -117 0
-21 -119 0
-15 -113 0
-21 -113 0
-21 -118 0
-16 -113 0
-15 -117 0
-17 -165 0
-17 -166 0
-15 -166 0
-19 -166 0
-18 -163 0
-17 -164 0
-18 -167 0
-18 -162 0
-20 -165 0
-20 -167 0
-16 -166 0
-17 -168 0
-17 -162 0
-19 -165 0
-19 -170 0
-16 -172 0
-16 -170 0
-17 -170 0
-18 -173 0
-19 -174 0
-15 -169 0
-15 -170 0
-18 -175 0
-19 -169 0
-20 -173 0
-20 -169 0
-16 -171 0
-17 -175 0
-18 -177 0
-16 -181 0
-20 -178 0
-21 -182 0
-16 -179 0
-15 -176 0
-19 -181 0
-16 -177 0
-18 -180 0
-15 -182 0
-20 -176 0
-20 -180 0
-17 -176 0
-16 -182 0
-15 -198 0
-20 -197 0
-18 -200 0
-19 -202 0
-20 -203 0
-15 -197 0
-17 -200 0
-20 -200 0
-21 -197 0
-16 -201 0
-18 -202 0
-15 -200 0
-17 -199 0
-17 -202 0
-24 -46 0
-25 -47 0
-28 -44 0
-27 -43 0
-24 -49 0
-23 -47 0
-23 -49 0
-23 -46 0
-25 -44 0
-27 -49 0
-22 -46 0
-22 -47 0
-28 -45 0
-25 -48 0
-28 -51 0
-27 -56 0
-25 -50 0
-23 -53 0
-24 -55 0
-22 -56 0
-23 -52 0
-26 -55 0
-26 -53 0
-27 -55 0
-27 -52 0
-24 -52 0
-28 -52 0
-23 -56 0
-26 -68 0
-27 -64 0
-28 -65 0
-25 -69 0
-22 -68 0
-27 -65 0
-25 -64 0
-23 -69 0
-23 -64 0
-28 -67 0
-22 -66 0
-26 -70 0
-28 -68 0
-27 -68 0
-28 -75 0
-27 -71 0
-25 -72 0
-26 -76 0
-28 -73 0
-22 -75 0
-25 -77 0
-26 -77 0
-22 -73 0
-27 -73 0
-27 -74 0
-22 -76 0
-28 -71 0
-24 -73 0
-24 -85 0
-23 -89 0
-25 -89 0
-24 -87 0
-26 -91 0
-27 -86 0
-24 -88 0
-24 -89 0
-23 -87 0
-27 -88 0
-25 -85 0
-22 -86 0
-26 -88 0
-26 -85 0
-22 -103 0
-28 -104 0
-28 -101 0
-26 -104 0
-26 -105 0
-27 -105 0
-28 -103 0
-25 -105 0
-24 -101 0
-28 -105 0
-27 -103 0
-23 -104 0
-25 -102 0
-26 -100 0
-26 -126 0
-22 -121 0
-28 -122 0
-22 -120 0
-25 -121 0
-23 -122 0
-26 -123 0
-22 -122 0
-22 -126 0
-28 -123 0
-23 -120 0
-24 -120 0
-25 -120 0
-24 -121 0
-24 -136 0
-27 -136 0
-24 -137 0
-24 -135 0
-27 -137 0
-28 -134 0
-26 -136 0
-26 -135 0
-27 -135 0
-22 -140 0
-22 -136 0
-23 -135 0
-22 -134 0
-28 -139 0
-22 -143 0
-24 -143 0
-26 -141 0
-24 -146 0
-24 -142 0
-27 -141 0
-23 -146 0
-23 -147 0
-27 -142 0
-24 -145 0
-28 -141 0
-25 -147 0
-24 -147 0
-26 -147 0
-24 -154 0
-28 -152 0
-23 -149 0
-28 -151 0
-28 -149 0
-24 -151 0
-23 -154 0
-27 -148 0
-24 -153 0
-26 -154 0
-28 -153 0
-24 -150 0
-24 -149 0
-28 -154 0
-22 -172 0
-26 -169 0
-28 -175 0
-28 -171 0
-25 -175 0
-23 -174 0
-24 -170 0
-24 -174 0
-24 -172 0
-22 -171 0
-24 -171 0
-22 -170 0
-23 -173 0
-25 -170 0
-24 -190 0
-28 -194 0
-23 -196 0
-27 -194 0
-22 -193 0
-23 -191 0
-28 -192 0
-25 -196 0
-24 -193 0
-22 -196 0
-22 -195 0
-26 -194 0
-25 -190 0
-27 -193 0
-23 -203 0
-22 -203 0
-25 -199 0
-22 -201 0
-22 -199 0
-26 -198 0
-26 -202 0
-24 -201 0
-28 -200 0
-25 -198 0
-26 -199 0
-27 -198 0
-28 -197 0
-27 -199 0
-31 -38 0
-35 -42 0
-30 -42 0
-30 -40 0
-30 -37 0
-31 -40 0
-32 -42 0
-35 -37 0
-34 -40 0
-29 -39 0
-34 -42 0
-33 -37 0
-32 -40 0
-32 -38 0
-31 -44 0
-29 -44 0
-32 -43 0
-30 -47 0
-34 -43 0
-29 -49 0
-34 -45 0
-31 -47 0
-29 -48 0
-33 -46 0
-34 -49 0
-31 -46 0
-31 -48 0
-30 -46 0
-34 -66 0
-34 -64 0
-32 -69 0
-31 -64 0
-33 -69 0
-33 -68 0
-30 -68 0
-34 -67 0
-32 -67 0
-32 -66 0
-31 -67 0
-31 -68 0
-31 -69 0
-35 -65 0
-34 -101 0
-30 -105 0
-30 -103 0
-32 -105 0
-29 -103 0
-34 -104 0
-30 -100 0
-31 -102 0
-31 -105 0
-31 -100 0
-33 -105 0
-32 -104 0
-35 -99 0
-31 -104 0
-34 -114 0
-31 -115 0
-31 -114 0
-33 -115 0
-31 -119 0
-33 -114 0
-35 -118 0
-34 -117 0
-30 -116 0
-30 -115 0
-30 -114 0
-35 -117 0
-32 -115 0
-32 -119 0
-34 -150 0
-29 -149 0
-32 -151 0
-31 -152 0
-31 -149 0
-34 -149 0
-32 -149 0
-35 -149 0
-35 -148 0
-33 -148 0
-35 -151 0
-30 -151 0
-33 -151 0
-33 -154 0
-33 -163 0
-34 -164 0
-33 -166 0
-33 -168 0
-34 -165 0
-30 -163 0
-32 -166 0
-29 -165 0
-32 -164 0
-35 -167 0
-30 -165 0
-35 -166 0
-32 -165 0
-34 -167 0
-35 -174 0
-32 -170 0
-32 -171 0
-29 -170 0
-31 -171 0
-30 -170 0
-29 -171 0
-35 -170 0
-30 -173 0
-33 -173 0
-33 -170 0
-29 -174 0
-34 -170 0
-30 -171 0
-32 -179 0
-35 -176 0
-33 -178 0
-33 -181 0
-31 -182 0
-29 -177 0
-30 -180 0
-35 -178 0
-34 -180 0
-33 -176 0
-29 -176 0
-29 -181 0
-34 -179 0
-32 -182 0
-30 -192 0
-35 -193 0
-29 -190 0
-33 -195 0
-31 -193 0
-32 -191 0
-30 -194 0
-32 -194 0
-33 -193 0
-30 -195 0
-30 -196 0
-29 -191 0
-34 -195 0
-35 -194 0
-29 -200 0
-29 -197 0
-31 -203 0
-35 -203 0
-35 -197 0
-30 -202 0
-33 -199 0
-33 -197 0
-34 -201 0
-30 -199 0
-33 -203 0
-34 -200 0
-32 -202 0
-35 -202 0
-36 -89 0
-37 -91 0
-37 -86 0
-38 -91 0
-41 -91 0
-38 -85 0
-42 -87 0
-42 -88 0
-40 -88 0
-38 -86 0
-41 -88 0
-38 -88 0
-39 -91 0
-42 -89 0
-40 -122 0
-41 -123 0
-39 -121 0
-37 -125 0
-42 -120 0
-41 -122 0
-42 -123 0
-41 -126 0
-42 -126 0
-38 -122 0
-37 -120 0
-36 -124 0
-37 -121 0
-41 -124 0
-42 -166 0
-41 -163 0
-39 -168 0
-37 -165 0
-38 -164 0
-38 -162 0
-41 -168 0
-42 -163 0
-37 -163 0
-39 -167 0
-40 -162 0
-37 -167 0
-38 -168 0
-36 -163 0
-41 -181 0
-36 -180 0
-41 -177 0
-38 -182 0
-42 -179 0
-38 -181 0
-40 -178 0
-39 -178 0
-42 -180 0
-39 -179 0
-42 -182 0
-38 -176 0
-39 -177 0
-36 -179 0
-43 -58 0
-45 -63 0
-49 -60 0
-43 -63 0
-49 -63 0
-46 -59 0
-43 -62 0
-48 -58 0
-49 -61 0
-47 -57 0
-45 -62 0
-44 -58 0
-47 -63 0
-47 -59 0
-44 -73 0
-44 -74 0
-48 -75 0
-45 -75 0
-46 -71 0
-43 -73 0
-44 -71 0
-47 -77 0
-47 -72 0
-45 -71 0
-45 -72 0
-48 -77 0
-49 -75 0
-49 -76 0
-45 -105 0
-49 -105 0
-45 -100 0
-46 -99 0
-48 -103 0
-45 -99 0
-45 -101 0
-43 -99 0
-45 -104 0
-46 -105 0
-49 -103 0
-47 -104 0
-47 -102 0
-49 -100 0
-46 -125 0
-49 -124 0
-48 -120 0
-45 -121 0
-47 -123 0
-43 -121 0
-49 -123 0
-46 -124 0
-49 -126 0
-45 -120 0
-44 -121 0
-46 -121 0
-43 -120 0
-45 -126 0
-44 -127 0
-48 -129 0
-44 -128 0
-48 -132 0
-47 -132 0
-46 -128 0
-48 -133 0
-49 -128 0
-48 -127 0
-43 -131 0
-45 -129 0
-47 -133 0
-43 -130 0
-44 -129 0
-43 -164 0
-49 -168 0
-46 -168 0
-47 -166 0
-45 -164 0
-44 -167 0
-47 -164 0
-44 -165 0
-49 -164 0
-46 -165 0
-48 -163 0
-43 -162 0
-49 -166 0
-44 -163 0
-44 -180 0
-47 -182 0
-49 -180 0
-49 -179 0
-45 -181 0
-45 -177 0
-45 -180 0
-44 -182 0
-47 -177 0
-49 -181 0
-43 -177 0
-48 -180 0
-43 -182 0
-46 -181 0
-56 -72 0
-52 -75 0
-56 -71 0
-50 -77 0
-53 -76 0
-54 -75 0
-53 -73 0
-53 -72 0
-51 -73 0
-50 -74 0
-51 -76 0
-50 -72 0
-51 -74 0
-55 -76 0
-50 -85 0
-50 -89 0
-56 -89 0
-56 -88 0
-51 -89 0
-55 -91 0
-52 -85 0
-53 -85 0
-52 -86 0
-51 -90 0
-52 -91 0
-55 -86 0
-56 -91 0
-53 -90 0
-54 -114 0
-56 -119 0
-52 -113 0
-51 -113 0
-55 -118 0
-51 -119 0
-56 -114 0
-52 -117 0
-51 -117 0
-54 -113 0
-52 -114 0
-53 -118 0
-50 -119 0
-56 -116 0
-50 -134 0
-51 -134 0
-55 -136 0
-52 -138 0
-52 -136 0
-51 -140 0
-56 -136 0
-51 -137 0
-50 -137 0
-51 -135 0
-50 -140 0
-54 -138 0
-56 -138 0
-53 -139 0
-57 -115 0
-58 -117 0
-62 -114 0
-58 -115 0
-60 -117 0
-58 -116 0
-62 -119 0
-62 -116 0
-61 -114 0
-63 -119 0
-57 -114 0
-59 -115 0
-57 -116 0
-62 -113 0
-65 -90 0
-66 -90 0
-67 -88 0
-69 -91 0
-64 -91 0
-70 -91 0
-68 -87 0
-66 -89 0
-68 -89 0
-70 -85 0
-70 -86 0
-65 -86 0
-64 -88 0
-64 -90 0
-68 -165 0
-70 -167 0
-64 -163 0
-65 -166 0
-67 -165 0
-66 -162 0
-66 -166 0
-65 -162 0
-68 -167 0
-64 -164 0
-69 -167 0
-68 -166 0
-68 -168 0
-67 -166 0
-64 -173 0
-66 -170 0
-68 -170 0
-67 -175 0
-70 -175 0
-64 -170 0
-69 -175 0
-66 -172 0
-69 -169 0
-68 -172 0
-64 -172 0
-65 -172 0
-64 -174 0
-65 -175 0
-66 -208 0
-66 -209 0
-64 -208 0
-69 -210 0
-64 -205 0
-67 -204 0
-65 -209 0
-68 -204 0
-68 -209 0
-66 -206 0
-68 -208 0
-70 -208 0
-66 -204 0
-69 -204 0
-74 -78 0
-76 -80 0
-77 -82 0
-76 -83 0
-75 -81 0
-76 -84 0
-74 -81 0
-72 -79 0
-75 -83 0
-72 -78 0
-73 -79 0
-74 -80 0
-76 -82 0
-72 -82 0
-73 -99 0
-76 -101 0
-74 -101 0
-77 -101 0
-75 -105 0
-76 -102 0
-73 -101 0
-73 -105 0
-75 -103 0
-74 -103 0
-71 -105 0
-75 -100 0
-77 -99 0
-71 -103 0
-76 -108 0
-72 -107 0
-71 -108 0
-74 -106 0
-73 -110 0
-74 -112 0
-73 -111 0
-71 -110 0
-73 -109 0
-71 -112 0
-74 -110 0
-75 -109 0
-73 -107 0
-75 -106 0
-75 -129 0
-72 -133 0
-72 -131 0
-71 -128 0
-76 -128 0
-76 -127 0
-73 -127 0
-74 -127 0
-72 -130 0
-77 -130 0
-73 -129 0
-71 -129 0
-76 -132 0
-74 -129 0
-73 -149 0
-77 -148 0
-72 -151 0
-74 -154 0
-74 -150 0
-73 -152 0
-76 -152 0
-71 -152 0
-73 -150 0
-72 -152 0
-77 -149 0
-71 -149 0
-76 -153 0
-73 -154 0
-73 -166 0
-72 -165 0
-74 -162 0
-75 -162 0
-75 -166 0
-71 -164 0
-72 -168 0
-73 -165 0
-77 -168 0
-76 -166 0
-72 -167 0
-76 -163 0
-73 -168 0
-75 -168 0
-73 -180 0
-77 -179 0
-76 -179 0
-73 -182 0
-73 -178 0
-72 -181 0
-77 -182 0
-73 -181 0
-74 -180 0
-74 -176 0
-72 -182 0
-75 -177 0
-71 -182 0
-74 -178 0
-74 -201 0
-75 -200 0
-71 -198 0
-77 -198 0
-74 -202 0
-75 -197 0
-77 -201 0
-76 -198 0
-71 -202 0
-73 -199 0
-73 -202 0
-71 -201 0
-73 -197 0
-73 -198 0
-81 -129 0
-82 -130 0
-81 -133 0
-84 -131 0
-83 -131 0
-83 -128 0
-78 -131 0
-82 -133 0
-83 -127 0
-84 -132 0
-79 -130 0
-84 -127 0
-81 -127 0
-78 -128 0
-80 -173 0
-81 -173 0
-84 -174 0
-80 -170 0
-82 -171 0
-82 -175 0
-79 -169 0
-81 -174 0
-79 -170 0
-81 -169 0
-83 -169 0
-79 -175 0
-81 -175 0
-80 -172 0
-79 -202 0
-84 -198 0
-83 -201 0
-80 -202 0
-83 -203 0
-78 -202 0
-82 -202 0
-78 -200 0
-83 -197 0
-78 -203 0
-81 -200 0
-81 -201 0
-81 -203 0
-83 -198 0
-79 -207 0
-82 -210 0
-84 -207 0
-78 -205 0
-80 -210 0
-83 -210 0
-84 -206 0
-81 -207 0
-81 -206 0
-83 -208 0
-82 -206 0
-79 -206 0
-82 -205 0
-80 -209 0
-90 -96 0
-91 -98 0
-89 -96 0
-85 -97 0
-87 -94 0
-91 -96 0
-85 -95 0
-86 -93 0
-91 -94 0
-89 -97 0
-87 -96 0
-85 -93 0
-90 -97 0
-87 -93 0
-90 -115 0
-88 -118 0
-87 -113 0
-91 -115 0
-91 -116 0
-89 -116 0
-89 -117 0
-91 -113 0
-85 -114 0
-88 -114 0
-90 -113 0
-89 -114 0
-87 -117 0
-88 -119 0
-87 -159 0
-91 -161 0
-86 -160 0
-85 -161 0
-89 -157 0
-89 -158 0
-88 -156 0
-86 -157 0
-89 -161 0
-91 -159 0
-87 -158 0
-90 -156 0
-85 -159 0
-91 -157 0
-86 -164 0
-91 -164 0
-85 -163 0
-90 -164 0
-91 -168 0
-90 -162 0
-89 -166 0
-85 -164 0
-88 -167 0
-86 -168 0
-88 -168 0
-91 -163 0
-89 -168 0
-86 -167 0
-87 -192 0
-87 -190 0
-90 -190 0
-90 -192 0
-89 -190 0
-87 -194 0
-85 -191 0
-89 -196 0
-85 -196 0
-86 -195 0
-85 -192 0
-91 -193 0
-88 -195 0
-87 -195 0
-85 -203 0
-87 -201 0
-86 -202 0
-91 -201 0
-88 -199 0
-90 -201 0
-91 -197 0
-91 -198 0
-90 -202 0
-91 -203 0
-86 -203 0
-86 -199 0
-87 -200 0
-88 -198 0
-95 -105 0
-97 -104 0
-92 -99 0
-98 -99 0
-97 -99 0
-97 -105 0
-92 -104 0
-98 -103 0
-98 -104 0
-98 -105 0
-92 -103 0
-95 -103 0
-96 -101 0
-95 -101 0
-97 -157 0
-92 -157 0
-96 -155 0
-96 -161 0
-96 -160 0
-94 -160 0
-98 -156 0
-93 -155 0
-97 -155 0
-92 -158 0
-95 -155 0
-92 -159 0
-95 -157 0
-98 -159 0
-94 -203 0
-97 -198 0
-97 -201 0
-96 -202 0
-97 -200 0
-98 -197 0
-94 -197 0
-94 -199 0
-96 -203 0
-95 -200 0
-93 -197 0
-95 -199 0
-92 -201 0
-94 -198 0
-100 -112 0
-105 -110 0
-99 -111 0
-103 -112 0
-99 -112 0
-100 -110 0
-104 -112 0
-102 -107 0
-99 -106 0
-105 -112 0
-100 -108 0
-104 -111 0
-103 -109 0
-99 -107 0
-104 -161 0
-103 -160 0
-100 -158 0
-104 -157 0
-105 -160 0
-105 -157 0
-103 -161 0
-99 -156 0
-101 -157 0
-105 -158 0
-104 -159 0
-101 -159 0
-103 -159 0
-100 -160 0
-105 -167 0
-99 -164 0
-100 -167 0
-103 -164 0
-105 -166 0
-102 -167 0
-104 -165 0
-104 -167 0
-105 -168 0
-103 -162 0
-104 -164 0
-101 -163 0
-104 -162 0
-105 -163 0
-103 -184 0
-105 -185 0
-102 -186 0
-104 -185 0
-104 -188 0
-104 -187 0
-104 -183 0
-100 -187 0
-101 -187 0
-102 -185 0
-102 -183 0
-99 -186 0
-101 -183 0
-105 -189 0
-100 -190 0
-104 -190 0
-102 -195 0
-102 -196 0
-105 -196 0
-104 -191 0
-101 -196 0
-99 -193 0
-103 -190 0
-105 -195 0
-105 -194 0
-105 -193 0
-105 -190 0
-105 -191 0
-104 -198 0
-100 -202 0
-102 -202 0
-100 -203 0
-102 -201 0
-102 -203 0
-104 -199 0
-105 -203 0
-100 -201 0
-100 -199 0
-103 -202 0
-104 -202 0
-103 -201 0
-104 -200 0
-108 -116 0
-106 -117 0
-111 -114 0
-112 -116 0
-107 -113 0
-111 -113 0
-107 -118 0
-106 -114 0
-108 -113 0
-111 -116 0
-106 -116 0
-110 -115 0
-110 -118 0
-108 -114 0
-106 -125 0
-108 -122 0
-110 -125 0
-107 -123 0
-106 -124 0
-110 -124 0
-112 -126 0
-108 -120 0
-106 -120 0
-110 -126 0
-107 -121 0
-112 -120 0
-106 -126 0
-109 -121 0
-112 -129 0
-110 -131 0
-107 -127 0
-112 -127 0
-108 -128 0
-106 -128 0
-106 -129 0
-111 -133 0
-111 -131 0
-107 -130 0
-109 -133 0
-110 -133 0
-111 -127 0
-112 -131 0
-108 -147 0
-110 -144 0
-110 -142 0
-109 -145 0
-106 -146 0
-108 -141 0
-110 -143 0
-110 -147 0
-107 -145 0
-112 -146 0
-106 -147 0
-112 -142 0
-108 -145 0
-106 -144 0
-107 -159 0
-107 -158 0
-112 -155 0
-108 -156 0
-111 -156 0
-109 -156 0
-108 -158 0
-112 -159 0
-109 -158 0
-108 -161 0
-107 -155 0
-108 -157 0
-110 -159 0
-112 -158 0
-108 -163 0
-112 -163 0
-109 -163 0
-112 -164 0
-106 -163 0
-110 -163 0
-112 -168 0
-110 -166 0
-106 -164 0
-106 -165 0
-107 -163 0
-109 -164 0
-109 -168 0
-110 -167 0
-107 -180 0
-110 -177 0
-109 -178 0
-111 -182 0
-107 -181 0
-108 -180 0
-110 -178 0
-107 -177 0
-106 -181 0
-111 -176 0
-108 -182 0
-108 -181 0
-108 -177 0
-112 -177 0
-111 -186 0
-109 -183 0
-111 -183 0
-109 -184 0
-109 -189 0
-112 -189 0
-106 -188 0
-107 -189 0
-106 -186 0
-112 -183 0
-111 -187 0
-106 -187 0
-109 -186 0
-107 -187 0
-110 -201 0
-111 -197 0
-112 -198 0
-107 -201 0
-108 -201 0
-110 -198 0
-109 -201 0
-109 -197 0
-107 -198 0
-108 -197 0
-110 -202 0
-112 -200 0
-106 -201 0
-106 -200 0
-109 -205 0
-110 -209 0
-110 -205 0
-111 -204 0
-112 -205 0
-109 -209 0
-108 -205 0
-106 -206 0
-106 -205 0
-110 -206 0
-108 -206 0
-110 -204 0
-107 -204 0
-106 -207 0
-118 -122 0
-113 -124 0
-116 -125 0
-116 -121 0
-119 -121 0
-116 -126 0
-118 -123 0
-115 -121 0
-119 -123 0
-116 -123 0
-117 -120 0
-119 -125 0
-118 -126 0
-114 -126 0
-113 -153 0
-113 -149 0
-114 -150 0
-115 -150 0
-119 -149 0
-116 -149 0
-118 -150 0
-119 -151 0
-116 -150 0
-119 -150 0
-114 -149 0
-116 -151 0
-114 -152 0
-119 -154 0
-117 -170 0
-115 -175 0
-114 -170 0
-113 -174 0
-117 -172 0
-118 -172 0
-114 -172 0
-117 -169 0
-113 -172 0
-116 -175 0
-115 -172 0
-116 -169 0
-117 -173 0
-116 -171 0
-116 -180 0
-118 -182 0
-117 -182 0
-116 -179 0
-119 -178 0
-118 -177 0
-115 -177 0
-115 -180 0
-113 -176 0
-117 -180 0
-119 -181 0
-113 -178 0
-114 -178 0
-114 -180 0
-115 -200 0
-114 -199 0
-113 -197 0
-114 -197 0
-114 -203 0
-116 -201 0
-117 -197 0
-119 -202 0
-118 -198 0
-119 -201 0
-116 -198 0
-114 -202 0
-117 -198 0
-115 -202 0
-117 -206 0
-116 -208 0
-119 -209 0
-119 -210 0
-113 -208 0
-113 -209 0
-114 -207 0
-116 -205 0
-113 -204 0
-115 -204 0
-116 -207 0
-114 -208 0
-117 -210 0
-115 -206 0
-121 -159 0
-126 -156 0
-121 -155 0
-126 -160 0
-125 -158 0
-122 -158 0
-125 -159 0
-124 -158 0
-120 -160 0
-123 -160 0
-124 -157 0
-120 -156 0
-125 -156 0
-123 -156 0
-124 -163 0
-122 -166 0
-120 -165 0
-126 -163 0
-125 -168 0
-122 -164 0
-122 -167 0
-123 -166 0
-125 -163 0
-123 -167 0
-123 -168 0
-125 -165 0
-124 -164 0
-126 -167 0
-128 -156 0
-129 -157 0
-129 -158 0
-130 -159 0
-133 -157 0
-132 -156 0
-131 -158 0
-130 -158 0
-127 -156 0
-130 -156 0
-129 -155 0
-130 -161 0
-133 -161 0
-131 -155 0
-131 -167 0
-132 -168 0
-131 -168 0
-128 -162 0
-129 -168 0
-130 -168 0
-133 -166 0
-132 -164 0
-133 -163 0
-129 -162 0
-128 -164 0
-127 -164 0
-130 -165 0
-127 -165 0
-139 -144 0
-137 -143 0
-135 -143 0
-136 -141 0
-136 -145 0
-140 -142 0
-134 -143 0
-138 -146 0
-139 -141 0
-138 -143 0
-138 -145 0
-137 -145 0
-135 -145 0
-136 -142 0
-138 -161 0
-137 -157 0
-138 -156 0
-140 -157 0
-137 -155 0
-135 -155 0
-139 -159 0
-135 -159 0
-134 -160 0
-138 -155 0
-139 -155 0
-137 -160 0
-140 -155 0
-134 -156 0
-139 -169 0
-140 -174 0
-138 -170 0
-138 -174 0
-140 -172 0
-134 -169 0
-137 -169 0
-140 -170 0
-137 -175 0
-134 -171 0
-135 -174 0
-137 -173 0
-138 -171 0
-140 -173 0
-134 -176 0
-139 -181 0
-140 -180 0
-134 -178 0
-139 -176 0
-134 -180 0
-136 -180 0
-137 -176 0
-139 -182 0
-140 -178 0
-139 -180 0
-140 -181 0
-137 -181 0
-137 -182 0
-138 -194 0
-134 -192 0
-138 -191 0
-140 -193 0
-136 -192 0
-140 -194 0
-135 -195 0
-140 -190 0
-139 -196 0
-137 -195 0
-136 -191 0
-136 -193 0
-139 -190 0
-139 -195 0
-143 -159 0
-144 -161 0
-141 -161 0
-142 -156 0
-143 -160 0
-141 -156 0
-147 -155 0
-144 -156 0
-142 -158 0
-145 -158 0
-146 -161 0
-142 -160 0
-141 -155 0
-147 -160 0
-141 -163 0
-146 -167 0
-145 -163 0
-145 -166 0
-141 -164 0
-145 -167 0
-143 -165 0
-141 -168 0
-142 -163 0
-141 -166 0
-141 -165 0
-144 -166 0
-143 -167 0
-147 -168 0
-151 -182 0
-152 -178 0
-148 -176 0
-149 -181 0
-154 -181 0
-154 -180 0
-152 -180 0
-150 -182 0
-153 -179 0
-153 -178 0
-152 -179 0
-152 -181 0
-152 -177 0
-148 -181 0
-148 -193 0
-151 -194 0
-153 -192 0
-152 -193 0
-154 -195 0
-149 -196 0
-152 -190 0
-153 -195 0
-152 -195 0
-148 -195 0
-150 -193 0
-148 -190 0
-149 -193 0
-152 -191 0
-151 -204 0
-150 -205 0
-148 -207 0
-152 -206 0
-149 -207 0
-154 -209 0
-153 -207 0
-150 -208 0
-151 -205 0
-152 -205 0
-148 -209 0
-154 -207 0
-151 -207 0
-153 -209 0
-155 -162 0
-155 -166 0
-156 -163 0
-159 -165 0
-156 -164 0
-158 -166 0
-156 -165 0
-156 -166 0
-160 -163 0
-157 -164 0
-161 -163 0
-161 -164 0
-160 -162 0
-155 -168 0
-158 -173 0
-159 -175 0
-160 -170 0
-157 -174 0
-161 -170 0
-156 -175 0
-159 -171 0
-159 -170 0
-156 -170 0
-155 -174 0
-160 -171 0
-161 -174 0
-160 -169 0
-158 -172 0
-170 -188 0
-173 -189 0
-172 -183 0
-171 -188 0
-170 -184 0
-169 -183 0
-174 -188 0
-172 -186 0
-173 -185 0
-169 -184 0
-170 -186 0
-175 -187 0
-170 -183 0
-172 -184 0
-185 -199 0
-185 -201 0
-187 -203 0
-187 -202 0
-186 -203 0
-185 -197 0
-183 -200 0
-187 -198 0
-186 -201 0
-189 -199 0
-186 -197 0
-189 -200 0
-185 -203 0
-188 -203 0
-191 -203 0
-190 -197 0
-193 -198 0
-192 -201 0
-193 -200 0
-195 -203 0
-193 -199 0
-190 -202 0
-192 -203 0
-196 -201 0
-192 -197 0
-194 -202 0
-195 -199 0
-196 -202 0
-199 -209 0
-199 -206 0
-198 -206 0
-203 -210 0
-197 -204 0
-200 -209 0
-198 -205 0
-202 -207 0
-201 -208 0
-202 -209 0
-199 -208 0
-200 -210 0
-199 -205 0
-197 -208 0
